\* Dreamteam *\
Maximize
OBJ: 11.5119245677 x_0 + 15.3906506326 x_1 + 15.2682369181 x_10
 + 6.55051106862 x_11 + 10.3746531196 x_12 + 33.0048702809 x_13
 + 30.4310793072 x_14 + 6.63880631597 x_15 + 27.4930444875 x_16
 + 43.5521909872 x_17 + 18.2645715968 x_18 + 42.5002317411 x_19
 + 1.3815014353 x_2 + 18.0276898416 x_20 + 18.0276898416 x_21
 + 28.0550316959 x_3 + 5.4606127992 x_4 + 68.9051859662 x_5
 + 13.8575775549 x_6 + 26.7269521558 x_7 + 9.09784083799 x_8
 + 32.3590545923 x_9
Subject To
_C1: x_12 + x_8 >= 1
_C10: 10 x_0 + 9.5 x_1 + 8 x_10 + 10.5 x_11 + 10 x_12 + 8 x_13 + 8.5 x_14
 + 8 x_15 + 8.5 x_16 + 9 x_17 + 9.5 x_18 + 8 x_19 + 8.5 x_2 + 8 x_20
 + 8.5 x_21 + 9 x_3 + 8.5 x_4 + 8.5 x_5 + 8.5 x_6 + 9 x_7 + 8.5 x_8 + 8.5 x_9
 <= 100
_C11: x_0 + x_1 + x_10 + x_2 + x_3 + x_4 + x_5 + x_6 + x_7 + x_8 + x_9 <= 7
_C12: x_11 + x_12 + x_13 + x_14 + x_15 + x_16 + x_17 + x_18 + x_19 + x_20
 + x_21 <= 7
_C2: x_12 + x_8 <= 4
_C3: x_0 + x_1 + x_11 + x_18 + x_20 + x_5 + x_9 >= 3
_C4: x_0 + x_1 + x_11 + x_18 + x_20 + x_5 + x_9 <= 6
_C5: x_13 + x_15 + x_19 + x_4 + x_6 >= 1
_C6: x_13 + x_15 + x_19 + x_4 + x_6 <= 4
_C7: x_10 + x_14 + x_16 + x_2 + x_21 + x_3 + x_7 >= 3
_C8: x_10 + x_14 + x_16 + x_2 + x_21 + x_3 + x_7 <= 6
_C9: x_0 + x_1 + x_10 + x_11 + x_12 + x_13 + x_14 + x_15 + x_16 + x_17 + x_18
 + x_19 + x_2 + x_20 + x_21 + x_3 + x_4 + x_5 + x_6 + x_7 + x_8 + x_9 = 11
Binaries
x_0
x_1
x_10
x_11
x_12
x_13
x_14
x_15
x_16
x_17
x_18
x_19
x_2
x_20
x_21
x_3
x_4
x_5
x_6
x_7
x_8
x_9
End
